SCIP version 5.0.0 [precision: 8 byte] [memory: block] [mode: optimized] [LP solver: NONE] [GitHash: 3bbd232]
Copyright (C) 2002-2017 Konrad-Zuse-Zentrum fuer Informationstechnik Berlin (ZIB)

External codes: 
  Readline EditLine w  GNU library for command line editing (gnu.org/s/readline)
  CppAD 20160000.1     Algorithmic Differentiation of C++ algorithms developed by B. Bell (www.coin-or.org/CppAD)
  ZLIB 1.2.5           General purpose compression library by J. Gailly and M. Adler (zlib.net)
  GMP 6.1.2            GNU Multiple Precision Arithmetic Library developed by T. Granlund (gmplib.org)

user parameter file <scip.set> not found - using default parameters

read problem <../../Split_data/output/biodeg/2/4_sample_biodeg.logreg>
============

File name	:	../../Split_data/output/biodeg/2/4_sample_biodeg.logreg
Problem name 	:	4_sample_biodeg
Number of data	:	844
Number of var	:	41
The given data has linear dependence
1 sets of column vector are linearly dependent:
{ 19}, 

[dim=1] time: 0.027589
[dim=2] time: 0.059285
[dim=3] time: 0.095439
[dim=4] time: 0.124322
[dim=5] time: 0.154324
[dim=6] time: 0.184912
[dim=7] time: 0.21717
[dim=8] time: 0.251225
[dim=9] time: 0.28149
[dim=10] time: 0.307471
[dim=11] time: 0.337485
[dim=12] time: 0.36209
[dim=13] time: 0.392362
[dim=14] time: 0.410049
[dim=15] time: 0.427526
[dim=16] time: 0.446608
[dim=17] time: 0.465333
[dim=18] time: 0.485055
[dim=19] time: 0.506717
[dim=20] time: 0.527781
[dim=21] time: 0.551159
[dim=22] time: 0.567933
[dim=23] time: 0.590866
[dim=24] Time of forward = 0.605515sec.
AIC: 533.087
k: 23

[dim=40] time: 0.160872
[dim=39] time: 0.218204
[dim=38] time: 0.257444
[dim=37] time: 0.300759
[dim=36] time: 0.345213
[dim=35] time: 0.388155
[dim=34] time: 0.440085
[dim=33] time: 0.486297
[dim=32] time: 0.533307
[dim=31] time: 0.578058
[dim=30] time: 0.617878
[dim=29] time: 0.662003
[dim=28] time: 0.703064
[dim=27] time: 0.730767
[dim=26] time: 0.759995
[dim=25] time: 0.791681
[dim=24] time: 0.824666
[dim=23] time: 0.856706
[dim=22] Time of backward = 0.881597sec.
AIC: 533.087
k: 23
